\ENCODING=ISO-8859-1
\Problem name: IloCplex

Maximize
 obj: 2033 vnp1 + 1864 vnp2 + 1547 vnp3 + 1650 vnp4 + 1001 vnp5 + 849 vnp6
      + 1104 vnp7 + 2310 vnp8 + [ - 398 vn2_vnp1_sn4 * vn1_vnp1_sn6
      - 288 vn2_vnp1_sn4 * vn3_vnp1_sn2 - 40 vn2_vnp1_sn4 * vn3_vnp1_sn8
      - 474 vn1_vnp1_sn6 * vn3_vnp1_sn2 - 386 vn1_vnp1_sn6 * vn3_vnp1_sn8
      - 136 vn3_vnp1_sn2 * vn4_vnp1_sn5 - 72 vn3_vnp1_sn2 * vn4_vnp1_sn3
      - 196 vn3_vnp1_sn2 * vn4_vnp1_sn14 - 108 vn3_vnp1_sn8 * vn4_vnp1_sn5
      - 120 vn3_vnp1_sn8 * vn4_vnp1_sn3 - 88 vn3_vnp1_sn8 * vn4_vnp1_sn14
      - 144 vn3_vnp2_sn18 * vn1_vnp2_sn2 - 198 vn3_vnp2_sn18 * vn1_vnp2_sn11
      - 204 vn3_vnp2_sn18 * vn4_vnp2_sn6 - 146 vn3_vnp2_sn18 * vn2_vnp2_sn16
      - 218 vn3_vnp2_sn18 * vn2_vnp2_sn3 - 326 vn3_vnp2_sn18 * vn2_vnp2_sn12
      - 134 vn3_vnp2_sn18 * vn4_vnp2_sn10 - 164 vn3_vnp2_sn18 * vn4_vnp2_sn15
      - 200 vn1_vnp2_sn2 * vn4_vnp2_sn6 - 352 vn1_vnp2_sn2 * vn2_vnp2_sn16
      - 118 vn1_vnp2_sn2 * vn2_vnp2_sn3 - 422 vn1_vnp2_sn2 * vn2_vnp2_sn12
      - 198 vn1_vnp2_sn2 * vn4_vnp2_sn10 - 256 vn1_vnp2_sn2 * vn4_vnp2_sn15
      - 154 vn1_vnp2_sn11 * vn4_vnp2_sn6 - 166 vn1_vnp2_sn11 * vn2_vnp2_sn16
      - 420 vn1_vnp2_sn11 * vn2_vnp2_sn3 - 180 vn1_vnp2_sn11 * vn2_vnp2_sn12
      - 76 vn1_vnp2_sn11 * vn4_vnp2_sn10 - 82 vn1_vnp2_sn11 * vn4_vnp2_sn15
      - 204 vn4_vnp2_sn6 * vn2_vnp2_sn16 - 166 vn4_vnp2_sn6 * vn2_vnp2_sn3
      - 102 vn4_vnp2_sn6 * vn2_vnp2_sn12 - 134 vn2_vnp2_sn16 * vn4_vnp2_sn10
      - 96 vn2_vnp2_sn16 * vn4_vnp2_sn15 - 128 vn2_vnp2_sn3 * vn4_vnp2_sn10
      - 222 vn2_vnp2_sn3 * vn4_vnp2_sn15 - 120 vn2_vnp2_sn12 * vn4_vnp2_sn10
      - 118 vn2_vnp2_sn12 * vn4_vnp2_sn15 - 132 vn3_vnp3_sn12 * vn1_vnp3_sn2
      - 122 vn3_vnp3_sn12 * vn1_vnp3_sn7 - 80 vn3_vnp3_sn12 * vn1_vnp3_sn10
      - 410 vn3_vnp3_sn12 * vn2_vnp3_sn14 - 152 vn3_vnp3_sn12 * vn2_vnp3_sn13
      - 154 vn3_vnp3_sn12 * vn4_vnp3_sn15 - 264 vn3_vnp3_sn12 * vn4_vnp3_sn3
      - 194 vn1_vnp3_sn2 * vn2_vnp3_sn14 - 214 vn1_vnp3_sn2 * vn2_vnp3_sn13
      - 138 vn1_vnp3_sn7 * vn2_vnp3_sn14 - 226 vn1_vnp3_sn7 * vn2_vnp3_sn13
      - 106 vn1_vnp3_sn10 * vn2_vnp3_sn14 - 154 vn1_vnp3_sn10 * vn2_vnp3_sn13
      - 30 vn2_vnp3_sn14 * vn4_vnp3_sn15 - 84 vn2_vnp3_sn14 * vn4_vnp3_sn3
      - 94 vn2_vnp3_sn13 * vn4_vnp3_sn15 - 100 vn2_vnp3_sn13 * vn4_vnp3_sn3
      - 92 vn2_vnp4_sn18 * vn1_vnp4_sn7 - 80 vn2_vnp4_sn18 * vn3_vnp4_sn9
      - 98 vn2_vnp4_sn18 * vn3_vnp4_sn20 - 120 vn1_vnp4_sn7 * vn2_vnp4_sn2
      - 160 vn1_vnp4_sn7 * vn2_vnp4_sn16 - 124 vn1_vnp4_sn7 * vn3_vnp4_sn9
      - 384 vn1_vnp4_sn7 * vn3_vnp4_sn20 - 496 vn1_vnp4_sn7 * vn4_vnp4_sn15
      - 228 vn1_vnp4_sn7 * vn4_vnp4_sn19 - 214 vn2_vnp4_sn2 * vn3_vnp4_sn9
      - 238 vn2_vnp4_sn2 * vn3_vnp4_sn20 - 106 vn2_vnp4_sn16 * vn3_vnp4_sn9
      - 124 vn2_vnp4_sn16 * vn3_vnp4_sn20 - 170 vn3_vnp4_sn9 * vn4_vnp4_sn15
      - 206 vn3_vnp4_sn9 * vn4_vnp4_sn19 - 126 vn3_vnp4_sn20 * vn4_vnp4_sn15
      - 114 vn3_vnp4_sn20 * vn4_vnp4_sn19 - 154 vn3_vnp5_sn14 * vn1_vnp5_sn8
      - 410 vn3_vnp5_sn14 * vn1_vnp5_sn13 - 186 vn3_vnp5_sn14 * vn1_vnp5_sn7
      - 398 vn3_vnp5_sn14 * vn2_vnp5_sn1 - 294 vn3_vnp5_sn14 * vn2_vnp5_sn19
      - 140 vn1_vnp5_sn8 * vn3_vnp5_sn16 - 118 vn1_vnp5_sn8 * vn2_vnp5_sn1
      - 200 vn1_vnp5_sn8 * vn2_vnp5_sn19 - 388 vn1_vnp5_sn13 * vn3_vnp5_sn16
      - 338 vn1_vnp5_sn13 * vn2_vnp5_sn1 - 354 vn1_vnp5_sn13 * vn2_vnp5_sn19
      - 172 vn1_vnp5_sn7 * vn3_vnp5_sn16 - 42 vn1_vnp5_sn7 * vn2_vnp5_sn1
      - 148 vn1_vnp5_sn7 * vn2_vnp5_sn19 - 216 vn3_vnp5_sn16 * vn2_vnp5_sn1
      - 136 vn3_vnp5_sn16 * vn2_vnp5_sn19 - 94 vn4_vnp6_sn8 * vn1_vnp6_sn14
      - 106 vn4_vnp6_sn8 * vn2_vnp6_sn5 - 128 vn4_vnp6_sn8 * vn2_vnp6_sn15
      - 92 vn1_vnp6_sn14 * vn2_vnp6_sn5 - 50 vn1_vnp6_sn14 * vn2_vnp6_sn15
      - 216 vn2_vnp6_sn5 * vn3_vnp6_sn6 - 308 vn2_vnp6_sn5 * vn3_vnp6_sn16
      - 396 vn2_vnp6_sn15 * vn3_vnp6_sn6 - 198 vn2_vnp6_sn15 * vn3_vnp6_sn16
      - 262 vn2_vnp7_sn8 * vn1_vnp7_sn6 - 166 vn2_vnp7_sn8 * vn1_vnp7_sn5
      - 168 vn2_vnp7_sn8 * vn1_vnp7_sn2 - 116 vn2_vnp7_sn8 * vn3_vnp7_sn19
      - 136 vn2_vnp7_sn8 * vn3_vnp7_sn10 - 70 vn2_vnp7_sn8 * vn3_vnp7_sn9
      - 146 vn1_vnp7_sn6 * vn2_vnp7_sn12 - 248 vn1_vnp7_sn6 * vn3_vnp7_sn19
      - 136 vn1_vnp7_sn6 * vn3_vnp7_sn10 - 172 vn1_vnp7_sn6 * vn3_vnp7_sn9
      - 194 vn1_vnp7_sn5 * vn2_vnp7_sn12 - 184 vn1_vnp7_sn5 * vn3_vnp7_sn19
      - 72 vn1_vnp7_sn5 * vn3_vnp7_sn10 - 108 vn1_vnp7_sn5 * vn3_vnp7_sn9
      - 340 vn1_vnp7_sn2 * vn2_vnp7_sn12 - 104 vn1_vnp7_sn2 * vn3_vnp7_sn19
      - 164 vn1_vnp7_sn2 * vn3_vnp7_sn10 - 156 vn1_vnp7_sn2 * vn3_vnp7_sn9
      - 336 vn2_vnp7_sn12 * vn3_vnp7_sn19 - 152 vn2_vnp7_sn12 * vn3_vnp7_sn10
      - 218 vn2_vnp7_sn12 * vn3_vnp7_sn9 - 230 vn4_vnp8_sn11 * vn1_vnp8_sn9
      - 278 vn4_vnp8_sn11 * vn1_vnp8_sn2 - 146 vn4_vnp8_sn11 * vn1_vnp8_sn12
      - 160 vn4_vnp8_sn11 * vn2_vnp8_sn17 - 368 vn4_vnp8_sn11 * vn3_vnp8_sn8
      - 126 vn4_vnp8_sn11 * vn3_vnp8_sn10 - 286 vn1_vnp8_sn9 * vn2_vnp8_sn17
      - 84 vn1_vnp8_sn9 * vn3_vnp8_sn8 - 170 vn1_vnp8_sn9 * vn3_vnp8_sn10
      - 248 vn1_vnp8_sn2 * vn2_vnp8_sn17 - 236 vn1_vnp8_sn2 * vn3_vnp8_sn8
      - 362 vn1_vnp8_sn2 * vn3_vnp8_sn10 - 424 vn1_vnp8_sn12 * vn2_vnp8_sn17
      - 632 vn1_vnp8_sn12 * vn3_vnp8_sn8 - 228 vn1_vnp8_sn12 * vn3_vnp8_sn10
      - 80 vn2_vnp8_sn17 * vn3_vnp8_sn8 - 116 vn2_vnp8_sn17 * vn3_vnp8_sn10
      ] / 2
Subject To
 _Embedding_clash_const_of_vnode1_vnp_1#0: - vnp1 + vn1_vnp1_sn6 <= 0
 _Embedding_clash_const_of_vnode2_vnp_1#1: - vnp1 + vn2_vnp1_sn4 <= 0
 _Embedding_clash_const_of_vnode3_vnp_1#2: - vnp1 + vn3_vnp1_sn2 + vn3_vnp1_sn8
                                 <= 0
 _Embedding_clash_const_of_vnode4_vnp_1#3: - vnp1 + vn4_vnp1_sn5 + vn4_vnp1_sn3
                                 + vn4_vnp1_sn14 <= 0
 _Embedding_clash_const_of_vnode1_vnp_2#4: - vnp2 + vn1_vnp2_sn2
                                 + vn1_vnp2_sn11 <= 0
 _Embedding_clash_const_of_vnode2_vnp_2#5: - vnp2 + vn2_vnp2_sn16
                                 + vn2_vnp2_sn3 + vn2_vnp2_sn12 <= 0
 _Embedding_clash_const_of_vnode3_vnp_2#6: - vnp2 + vn3_vnp2_sn18 <= 0
 _Embedding_clash_const_of_vnode4_vnp_2#7: - vnp2 + vn4_vnp2_sn6
                                 + vn4_vnp2_sn10 + vn4_vnp2_sn15 <= 0
 _Embedding_clash_const_of_vnode1_vnp_3#8: - vnp3 + vn1_vnp3_sn2 + vn1_vnp3_sn7
                                 + vn1_vnp3_sn10 <= 0
 _Embedding_clash_const_of_vnode2_vnp_3#9: - vnp3 + vn2_vnp3_sn14
                                 + vn2_vnp3_sn13 <= 0
 _Embedding_clash_const_of_vnode3_vnp_3#10: - vnp3 + vn3_vnp3_sn12 <= 0
 _Embedding_clash_const_of_vnode4_vnp_3#11: - vnp3 + vn4_vnp3_sn15
                                 + vn4_vnp3_sn3 <= 0
 _Embedding_clash_const_of_vnode1_vnp_4#12: - vnp4 + vn1_vnp4_sn7 <= 0
 _Embedding_clash_const_of_vnode2_vnp_4#13: - vnp4 + vn2_vnp4_sn18
                                 + vn2_vnp4_sn2 + vn2_vnp4_sn16 <= 0
 _Embedding_clash_const_of_vnode3_vnp_4#14: - vnp4 + vn3_vnp4_sn9
                                 + vn3_vnp4_sn20 <= 0
 _Embedding_clash_const_of_vnode4_vnp_4#15: - vnp4 + vn4_vnp4_sn15
                                 + vn4_vnp4_sn19 <= 0
 _Embedding_clash_const_of_vnode1_vnp_5#16: - vnp5 + vn1_vnp5_sn8
                                 + vn1_vnp5_sn13 + vn1_vnp5_sn7 <= 0
 _Embedding_clash_const_of_vnode2_vnp_5#17: - vnp5 + vn2_vnp5_sn1
                                 + vn2_vnp5_sn19 <= 0
 _Embedding_clash_const_of_vnode3_vnp_5#18: - vnp5 + vn3_vnp5_sn14
                                 + vn3_vnp5_sn16 <= 0
 _Embedding_clash_const_of_vnode1_vnp_6#19: - vnp6 + vn1_vnp6_sn14 <= 0
 _Embedding_clash_const_of_vnode2_vnp_6#20: - vnp6 + vn2_vnp6_sn5
                                 + vn2_vnp6_sn15 <= 0
 _Embedding_clash_const_of_vnode3_vnp_6#21: - vnp6 + vn3_vnp6_sn6
                                 + vn3_vnp6_sn16 <= 0
 _Embedding_clash_const_of_vnode4_vnp_6#22: - vnp6 + vn4_vnp6_sn8 <= 0
 _Embedding_clash_const_of_vnode1_vnp_7#23: - vnp7 + vn1_vnp7_sn6
                                 + vn1_vnp7_sn5 + vn1_vnp7_sn2 <= 0
 _Embedding_clash_const_of_vnode2_vnp_7#24: - vnp7 + vn2_vnp7_sn8
                                 + vn2_vnp7_sn12 <= 0
 _Embedding_clash_const_of_vnode3_vnp_7#25: - vnp7 + vn3_vnp7_sn19
                                 + vn3_vnp7_sn10 + vn3_vnp7_sn9 <= 0
 _Embedding_clash_const_of_vnode1_vnp_8#26: - vnp8 + vn1_vnp8_sn9
                                 + vn1_vnp8_sn2 + vn1_vnp8_sn12 <= 0
 _Embedding_clash_const_of_vnode2_vnp_8#27: - vnp8 + vn2_vnp8_sn17 <= 0
 _Embedding_clash_const_of_vnode3_vnp_8#28: - vnp8 + vn3_vnp8_sn8
                                 + vn3_vnp8_sn10 <= 0
 _Embedding_clash_const_of_vnode4_vnp_8#29: - vnp8 + vn4_vnp8_sn11 <= 0
 No_partial_embedding_of_Virtual_Network_1_Virtual_Link_1#0: vnp1
                                 + [ - vn2_vnp1_sn4 * vn1_vnp1_sn6 ] <= 0
 No_partial_embedding_of_Virtual_Network_1_Virtual_Link_2#1: vnp1
                                 + [ - vn2_vnp1_sn4 * vn3_vnp1_sn2
                                 - vn2_vnp1_sn4 * vn3_vnp1_sn8 ] <= 0
 No_partial_embedding_of_Virtual_Network_1_Virtual_Link_3#2: vnp1
                                 + [ - vn1_vnp1_sn6 * vn3_vnp1_sn2
                                 - vn1_vnp1_sn6 * vn3_vnp1_sn8 ] <= 0
 No_partial_embedding_of_Virtual_Network_1_Virtual_Link_4#3: vnp1
                                 + [ - vn3_vnp1_sn2 * vn4_vnp1_sn5
                                 - vn3_vnp1_sn2 * vn4_vnp1_sn3
                                 - vn3_vnp1_sn2 * vn4_vnp1_sn14
                                 - vn3_vnp1_sn8 * vn4_vnp1_sn5
                                 - vn3_vnp1_sn8 * vn4_vnp1_sn3
                                 - vn3_vnp1_sn8 * vn4_vnp1_sn14 ] <= 0
 No_partial_embedding_of_Virtual_Network_2_Virtual_Link_5#4: vnp2
                                 + [ - vn3_vnp2_sn18 * vn1_vnp2_sn2
                                 - vn3_vnp2_sn18 * vn1_vnp2_sn11 ] <= 0
 No_partial_embedding_of_Virtual_Network_2_Virtual_Link_6#5: vnp2
                                 + [ - vn4_vnp2_sn6 * vn2_vnp2_sn16
                                 - vn4_vnp2_sn6 * vn2_vnp2_sn3
                                 - vn4_vnp2_sn6 * vn2_vnp2_sn12
                                 - vn2_vnp2_sn16 * vn4_vnp2_sn10
                                 - vn2_vnp2_sn16 * vn4_vnp2_sn15
                                 - vn2_vnp2_sn3 * vn4_vnp2_sn10
                                 - vn2_vnp2_sn3 * vn4_vnp2_sn15
                                 - vn2_vnp2_sn12 * vn4_vnp2_sn10
                                 - vn2_vnp2_sn12 * vn4_vnp2_sn15 ] <= 0
 No_partial_embedding_of_Virtual_Network_2_Virtual_Link_7#6: vnp2
                                 + [ - vn3_vnp2_sn18 * vn2_vnp2_sn16
                                 - vn3_vnp2_sn18 * vn2_vnp2_sn3
                                 - vn3_vnp2_sn18 * vn2_vnp2_sn12 ] <= 0
 No_partial_embedding_of_Virtual_Network_2_Virtual_Link_8#7: vnp2
                                 + [ - vn1_vnp2_sn2 * vn4_vnp2_sn6
                                 - vn1_vnp2_sn2 * vn4_vnp2_sn10
                                 - vn1_vnp2_sn2 * vn4_vnp2_sn15
                                 - vn1_vnp2_sn11 * vn4_vnp2_sn6
                                 - vn1_vnp2_sn11 * vn4_vnp2_sn10
                                 - vn1_vnp2_sn11 * vn4_vnp2_sn15 ] <= 0
 No_partial_embedding_of_Virtual_Network_2_Virtual_Link_9#8: vnp2
                                 + [ - vn3_vnp2_sn18 * vn4_vnp2_sn6
                                 - vn3_vnp2_sn18 * vn4_vnp2_sn10
                                 - vn3_vnp2_sn18 * vn4_vnp2_sn15 ] <= 0
 No_partial_embedding_of_Virtual_Network_2_Virtual_Link_10#9: vnp2
                                 + [ - vn1_vnp2_sn2 * vn2_vnp2_sn16
                                 - vn1_vnp2_sn2 * vn2_vnp2_sn3
                                 - vn1_vnp2_sn2 * vn2_vnp2_sn12
                                 - vn1_vnp2_sn11 * vn2_vnp2_sn16
                                 - vn1_vnp2_sn11 * vn2_vnp2_sn3
                                 - vn1_vnp2_sn11 * vn2_vnp2_sn12 ] <= 0
 No_partial_embedding_of_Virtual_Network_3_Virtual_Link_11#10: vnp3
                                 + [ - vn3_vnp3_sn12 * vn1_vnp3_sn2
                                 - vn3_vnp3_sn12 * vn1_vnp3_sn7
                                 - vn3_vnp3_sn12 * vn1_vnp3_sn10 ] <= 0
 No_partial_embedding_of_Virtual_Network_3_Virtual_Link_12#11: vnp3
                                 + [ - vn3_vnp3_sn12 * vn2_vnp3_sn14
                                 - vn3_vnp3_sn12 * vn2_vnp3_sn13 ] <= 0
 No_partial_embedding_of_Virtual_Network_3_Virtual_Link_13#12: vnp3
                                 + [ - vn3_vnp3_sn12 * vn4_vnp3_sn15
                                 - vn3_vnp3_sn12 * vn4_vnp3_sn3 ] <= 0
 No_partial_embedding_of_Virtual_Network_3_Virtual_Link_14#13: vnp3
                                 + [ - vn2_vnp3_sn14 * vn4_vnp3_sn15
                                 - vn2_vnp3_sn14 * vn4_vnp3_sn3
                                 - vn2_vnp3_sn13 * vn4_vnp3_sn15
                                 - vn2_vnp3_sn13 * vn4_vnp3_sn3 ] <= 0
 No_partial_embedding_of_Virtual_Network_3_Virtual_Link_15#14: vnp3
                                 + [ - vn1_vnp3_sn2 * vn2_vnp3_sn14
                                 - vn1_vnp3_sn2 * vn2_vnp3_sn13
                                 - vn1_vnp3_sn7 * vn2_vnp3_sn14
                                 - vn1_vnp3_sn7 * vn2_vnp3_sn13
                                 - vn1_vnp3_sn10 * vn2_vnp3_sn14
                                 - vn1_vnp3_sn10 * vn2_vnp3_sn13 ] <= 0
 No_partial_embedding_of_Virtual_Network_4_Virtual_Link_16#15: vnp4
                                 + [ - vn2_vnp4_sn18 * vn1_vnp4_sn7
                                 - vn1_vnp4_sn7 * vn2_vnp4_sn2
                                 - vn1_vnp4_sn7 * vn2_vnp4_sn16 ] <= 0
 No_partial_embedding_of_Virtual_Network_4_Virtual_Link_17#16: vnp4
                                 + [ - vn2_vnp4_sn18 * vn3_vnp4_sn9
                                 - vn2_vnp4_sn18 * vn3_vnp4_sn20
                                 - vn2_vnp4_sn2 * vn3_vnp4_sn9
                                 - vn2_vnp4_sn2 * vn3_vnp4_sn20
                                 - vn2_vnp4_sn16 * vn3_vnp4_sn9
                                 - vn2_vnp4_sn16 * vn3_vnp4_sn20 ] <= 0
 No_partial_embedding_of_Virtual_Network_4_Virtual_Link_18#17: vnp4
                                 + [ - vn1_vnp4_sn7 * vn3_vnp4_sn9
                                 - vn1_vnp4_sn7 * vn3_vnp4_sn20 ] <= 0
 No_partial_embedding_of_Virtual_Network_4_Virtual_Link_19#18: vnp4
                                 + [ - vn3_vnp4_sn9 * vn4_vnp4_sn15
                                 - vn3_vnp4_sn9 * vn4_vnp4_sn19
                                 - vn3_vnp4_sn20 * vn4_vnp4_sn15
                                 - vn3_vnp4_sn20 * vn4_vnp4_sn19 ] <= 0
 No_partial_embedding_of_Virtual_Network_4_Virtual_Link_20#19: vnp4
                                 + [ - vn1_vnp4_sn7 * vn4_vnp4_sn15
                                 - vn1_vnp4_sn7 * vn4_vnp4_sn19 ] <= 0
 No_partial_embedding_of_Virtual_Network_5_Virtual_Link_21#20: vnp5
                                 + [ - vn3_vnp5_sn14 * vn1_vnp5_sn8
                                 - vn3_vnp5_sn14 * vn1_vnp5_sn13
                                 - vn3_vnp5_sn14 * vn1_vnp5_sn7
                                 - vn1_vnp5_sn8 * vn3_vnp5_sn16
                                 - vn1_vnp5_sn13 * vn3_vnp5_sn16
                                 - vn1_vnp5_sn7 * vn3_vnp5_sn16 ] <= 0
 No_partial_embedding_of_Virtual_Network_5_Virtual_Link_22#21: vnp5
                                 + [ - vn3_vnp5_sn14 * vn2_vnp5_sn1
                                 - vn3_vnp5_sn14 * vn2_vnp5_sn19
                                 - vn3_vnp5_sn16 * vn2_vnp5_sn1
                                 - vn3_vnp5_sn16 * vn2_vnp5_sn19 ] <= 0
 No_partial_embedding_of_Virtual_Network_5_Virtual_Link_23#22: vnp5
                                 + [ - vn1_vnp5_sn8 * vn2_vnp5_sn1
                                 - vn1_vnp5_sn8 * vn2_vnp5_sn19
                                 - vn1_vnp5_sn13 * vn2_vnp5_sn1
                                 - vn1_vnp5_sn13 * vn2_vnp5_sn19
                                 - vn1_vnp5_sn7 * vn2_vnp5_sn1
                                 - vn1_vnp5_sn7 * vn2_vnp5_sn19 ] <= 0
 No_partial_embedding_of_Virtual_Network_6_Virtual_Link_24#23: vnp6
                                 + [ - vn4_vnp6_sn8 * vn1_vnp6_sn14 ] <= 0
 No_partial_embedding_of_Virtual_Network_6_Virtual_Link_25#24: vnp6
                                 + [ - vn4_vnp6_sn8 * vn2_vnp6_sn5
                                 - vn4_vnp6_sn8 * vn2_vnp6_sn15 ] <= 0
 No_partial_embedding_of_Virtual_Network_6_Virtual_Link_26#25: vnp6
                                 + [ - vn2_vnp6_sn5 * vn3_vnp6_sn6
                                 - vn2_vnp6_sn5 * vn3_vnp6_sn16
                                 - vn2_vnp6_sn15 * vn3_vnp6_sn6
                                 - vn2_vnp6_sn15 * vn3_vnp6_sn16 ] <= 0
 No_partial_embedding_of_Virtual_Network_6_Virtual_Link_27#26: vnp6
                                 + [ - vn1_vnp6_sn14 * vn2_vnp6_sn5
                                 - vn1_vnp6_sn14 * vn2_vnp6_sn15 ] <= 0
 No_partial_embedding_of_Virtual_Network_7_Virtual_Link_28#27: vnp7
                                 + [ - vn2_vnp7_sn8 * vn1_vnp7_sn6
                                 - vn2_vnp7_sn8 * vn1_vnp7_sn5
                                 - vn2_vnp7_sn8 * vn1_vnp7_sn2
                                 - vn1_vnp7_sn6 * vn2_vnp7_sn12
                                 - vn1_vnp7_sn5 * vn2_vnp7_sn12
                                 - vn1_vnp7_sn2 * vn2_vnp7_sn12 ] <= 0
 No_partial_embedding_of_Virtual_Network_7_Virtual_Link_29#28: vnp7
                                 + [ - vn2_vnp7_sn8 * vn3_vnp7_sn19
                                 - vn2_vnp7_sn8 * vn3_vnp7_sn10
                                 - vn2_vnp7_sn8 * vn3_vnp7_sn9
                                 - vn2_vnp7_sn12 * vn3_vnp7_sn19
                                 - vn2_vnp7_sn12 * vn3_vnp7_sn10
                                 - vn2_vnp7_sn12 * vn3_vnp7_sn9 ] <= 0
 No_partial_embedding_of_Virtual_Network_7_Virtual_Link_30#29: vnp7
                                 + [ - vn1_vnp7_sn6 * vn3_vnp7_sn19
                                 - vn1_vnp7_sn6 * vn3_vnp7_sn10
                                 - vn1_vnp7_sn6 * vn3_vnp7_sn9
                                 - vn1_vnp7_sn5 * vn3_vnp7_sn19
                                 - vn1_vnp7_sn5 * vn3_vnp7_sn10
                                 - vn1_vnp7_sn5 * vn3_vnp7_sn9
                                 - vn1_vnp7_sn2 * vn3_vnp7_sn19
                                 - vn1_vnp7_sn2 * vn3_vnp7_sn10
                                 - vn1_vnp7_sn2 * vn3_vnp7_sn9 ] <= 0
 No_partial_embedding_of_Virtual_Network_8_Virtual_Link_31#30: vnp8
                                 + [ - vn4_vnp8_sn11 * vn1_vnp8_sn9
                                 - vn4_vnp8_sn11 * vn1_vnp8_sn2
                                 - vn4_vnp8_sn11 * vn1_vnp8_sn12 ] <= 0
 No_partial_embedding_of_Virtual_Network_8_Virtual_Link_32#31: vnp8
                                 + [ - vn4_vnp8_sn11 * vn2_vnp8_sn17 ] <= 0
 No_partial_embedding_of_Virtual_Network_8_Virtual_Link_33#32: vnp8
                                 + [ - vn4_vnp8_sn11 * vn3_vnp8_sn8
                                 - vn4_vnp8_sn11 * vn3_vnp8_sn10 ] <= 0
 No_partial_embedding_of_Virtual_Network_8_Virtual_Link_34#33: vnp8
                                 + [ - vn2_vnp8_sn17 * vn3_vnp8_sn8
                                 - vn2_vnp8_sn17 * vn3_vnp8_sn10 ] <= 0
 No_partial_embedding_of_Virtual_Network_8_Virtual_Link_35#34: vnp8
                                 + [ - vn1_vnp8_sn9 * vn2_vnp8_sn17
                                 - vn1_vnp8_sn2 * vn2_vnp8_sn17
                                 - vn1_vnp8_sn12 * vn2_vnp8_sn17 ] <= 0
 No_partial_embedding_of_Virtual_Network_8_Virtual_Link_36#35: vnp8
                                 + [ - vn1_vnp8_sn9 * vn3_vnp8_sn8
                                 - vn1_vnp8_sn9 * vn3_vnp8_sn10
                                 - vn1_vnp8_sn2 * vn3_vnp8_sn8
                                 - vn1_vnp8_sn2 * vn3_vnp8_sn10
                                 - vn1_vnp8_sn12 * vn3_vnp8_sn8
                                 - vn1_vnp8_sn12 * vn3_vnp8_sn10 ] <= 0
 q37#36:                         2033 vnp1 + 1864 vnp2 + 1547 vnp3 + 1650 vnp4
                                 + 1001 vnp5 + 849 vnp6 + 1104 vnp7 + 2310 vnp8
                                 + [ - 199 vn2_vnp1_sn4 * vn1_vnp1_sn6
                                 - 144 vn2_vnp1_sn4 * vn3_vnp1_sn2
                                 - 20 vn2_vnp1_sn4 * vn3_vnp1_sn8
                                 - 237 vn1_vnp1_sn6 * vn3_vnp1_sn2
                                 - 193 vn1_vnp1_sn6 * vn3_vnp1_sn8
                                 - 68 vn3_vnp1_sn2 * vn4_vnp1_sn5
                                 - 36 vn3_vnp1_sn2 * vn4_vnp1_sn3
                                 - 98 vn3_vnp1_sn2 * vn4_vnp1_sn14
                                 - 54 vn3_vnp1_sn8 * vn4_vnp1_sn5
                                 - 60 vn3_vnp1_sn8 * vn4_vnp1_sn3
                                 - 44 vn3_vnp1_sn8 * vn4_vnp1_sn14
                                 - 72 vn3_vnp2_sn18 * vn1_vnp2_sn2
                                 - 99 vn3_vnp2_sn18 * vn1_vnp2_sn11
                                 - 102 vn3_vnp2_sn18 * vn4_vnp2_sn6
                                 - 73 vn3_vnp2_sn18 * vn2_vnp2_sn16
                                 - 109 vn3_vnp2_sn18 * vn2_vnp2_sn3
                                 - 163 vn3_vnp2_sn18 * vn2_vnp2_sn12
                                 - 67 vn3_vnp2_sn18 * vn4_vnp2_sn10
                                 - 82 vn3_vnp2_sn18 * vn4_vnp2_sn15
                                 - 100 vn1_vnp2_sn2 * vn4_vnp2_sn6
                                 - 176 vn1_vnp2_sn2 * vn2_vnp2_sn16
                                 - 59 vn1_vnp2_sn2 * vn2_vnp2_sn3
                                 - 211 vn1_vnp2_sn2 * vn2_vnp2_sn12
                                 - 99 vn1_vnp2_sn2 * vn4_vnp2_sn10
                                 - 128 vn1_vnp2_sn2 * vn4_vnp2_sn15
                                 - 77 vn1_vnp2_sn11 * vn4_vnp2_sn6
                                 - 83 vn1_vnp2_sn11 * vn2_vnp2_sn16
                                 - 210 vn1_vnp2_sn11 * vn2_vnp2_sn3
                                 - 90 vn1_vnp2_sn11 * vn2_vnp2_sn12
                                 - 38 vn1_vnp2_sn11 * vn4_vnp2_sn10
                                 - 41 vn1_vnp2_sn11 * vn4_vnp2_sn15
                                 - 102 vn4_vnp2_sn6 * vn2_vnp2_sn16
                                 - 83 vn4_vnp2_sn6 * vn2_vnp2_sn3
                                 - 51 vn4_vnp2_sn6 * vn2_vnp2_sn12
                                 - 67 vn2_vnp2_sn16 * vn4_vnp2_sn10
                                 - 48 vn2_vnp2_sn16 * vn4_vnp2_sn15
                                 - 64 vn2_vnp2_sn3 * vn4_vnp2_sn10
                                 - 111 vn2_vnp2_sn3 * vn4_vnp2_sn15
                                 - 60 vn2_vnp2_sn12 * vn4_vnp2_sn10
                                 - 59 vn2_vnp2_sn12 * vn4_vnp2_sn15
                                 - 66 vn3_vnp3_sn12 * vn1_vnp3_sn2
                                 - 61 vn3_vnp3_sn12 * vn1_vnp3_sn7
                                 - 40 vn3_vnp3_sn12 * vn1_vnp3_sn10
                                 - 205 vn3_vnp3_sn12 * vn2_vnp3_sn14
                                 - 76 vn3_vnp3_sn12 * vn2_vnp3_sn13
                                 - 77 vn3_vnp3_sn12 * vn4_vnp3_sn15
                                 - 132 vn3_vnp3_sn12 * vn4_vnp3_sn3
                                 - 97 vn1_vnp3_sn2 * vn2_vnp3_sn14
                                 - 107 vn1_vnp3_sn2 * vn2_vnp3_sn13
                                 - 69 vn1_vnp3_sn7 * vn2_vnp3_sn14
                                 - 113 vn1_vnp3_sn7 * vn2_vnp3_sn13
                                 - 53 vn1_vnp3_sn10 * vn2_vnp3_sn14
                                 - 77 vn1_vnp3_sn10 * vn2_vnp3_sn13
                                 - 15 vn2_vnp3_sn14 * vn4_vnp3_sn15
                                 - 42 vn2_vnp3_sn14 * vn4_vnp3_sn3
                                 - 47 vn2_vnp3_sn13 * vn4_vnp3_sn15
                                 - 50 vn2_vnp3_sn13 * vn4_vnp3_sn3
                                 - 46 vn2_vnp4_sn18 * vn1_vnp4_sn7
                                 - 40 vn2_vnp4_sn18 * vn3_vnp4_sn9
                                 - 49 vn2_vnp4_sn18 * vn3_vnp4_sn20
                                 - 60 vn1_vnp4_sn7 * vn2_vnp4_sn2
                                 - 80 vn1_vnp4_sn7 * vn2_vnp4_sn16
                                 - 62 vn1_vnp4_sn7 * vn3_vnp4_sn9
                                 - 192 vn1_vnp4_sn7 * vn3_vnp4_sn20
                                 - 248 vn1_vnp4_sn7 * vn4_vnp4_sn15
                                 - 114 vn1_vnp4_sn7 * vn4_vnp4_sn19
                                 - 107 vn2_vnp4_sn2 * vn3_vnp4_sn9
                                 - 119 vn2_vnp4_sn2 * vn3_vnp4_sn20
                                 - 53 vn2_vnp4_sn16 * vn3_vnp4_sn9
                                 - 62 vn2_vnp4_sn16 * vn3_vnp4_sn20
                                 - 85 vn3_vnp4_sn9 * vn4_vnp4_sn15
                                 - 103 vn3_vnp4_sn9 * vn4_vnp4_sn19
                                 - 63 vn3_vnp4_sn20 * vn4_vnp4_sn15
                                 - 57 vn3_vnp4_sn20 * vn4_vnp4_sn19
                                 - 77 vn3_vnp5_sn14 * vn1_vnp5_sn8
                                 - 205 vn3_vnp5_sn14 * vn1_vnp5_sn13
                                 - 93 vn3_vnp5_sn14 * vn1_vnp5_sn7
                                 - 199 vn3_vnp5_sn14 * vn2_vnp5_sn1
                                 - 147 vn3_vnp5_sn14 * vn2_vnp5_sn19
                                 - 70 vn1_vnp5_sn8 * vn3_vnp5_sn16
                                 - 59 vn1_vnp5_sn8 * vn2_vnp5_sn1
                                 - 100 vn1_vnp5_sn8 * vn2_vnp5_sn19
                                 - 194 vn1_vnp5_sn13 * vn3_vnp5_sn16
                                 - 169 vn1_vnp5_sn13 * vn2_vnp5_sn1
                                 - 177 vn1_vnp5_sn13 * vn2_vnp5_sn19
                                 - 86 vn1_vnp5_sn7 * vn3_vnp5_sn16
                                 - 21 vn1_vnp5_sn7 * vn2_vnp5_sn1
                                 - 74 vn1_vnp5_sn7 * vn2_vnp5_sn19
                                 - 108 vn3_vnp5_sn16 * vn2_vnp5_sn1
                                 - 68 vn3_vnp5_sn16 * vn2_vnp5_sn19
                                 - 47 vn4_vnp6_sn8 * vn1_vnp6_sn14
                                 - 53 vn4_vnp6_sn8 * vn2_vnp6_sn5
                                 - 64 vn4_vnp6_sn8 * vn2_vnp6_sn15
                                 - 46 vn1_vnp6_sn14 * vn2_vnp6_sn5
                                 - 25 vn1_vnp6_sn14 * vn2_vnp6_sn15
                                 - 108 vn2_vnp6_sn5 * vn3_vnp6_sn6
                                 - 154 vn2_vnp6_sn5 * vn3_vnp6_sn16
                                 - 198 vn2_vnp6_sn15 * vn3_vnp6_sn6
                                 - 99 vn2_vnp6_sn15 * vn3_vnp6_sn16
                                 - 131 vn2_vnp7_sn8 * vn1_vnp7_sn6
                                 - 83 vn2_vnp7_sn8 * vn1_vnp7_sn5
                                 - 84 vn2_vnp7_sn8 * vn1_vnp7_sn2
                                 - 58 vn2_vnp7_sn8 * vn3_vnp7_sn19
                                 - 68 vn2_vnp7_sn8 * vn3_vnp7_sn10
                                 - 35 vn2_vnp7_sn8 * vn3_vnp7_sn9
                                 - 73 vn1_vnp7_sn6 * vn2_vnp7_sn12
                                 - 124 vn1_vnp7_sn6 * vn3_vnp7_sn19
                                 - 68 vn1_vnp7_sn6 * vn3_vnp7_sn10
                                 - 86 vn1_vnp7_sn6 * vn3_vnp7_sn9
                                 - 97 vn1_vnp7_sn5 * vn2_vnp7_sn12
                                 - 92 vn1_vnp7_sn5 * vn3_vnp7_sn19
                                 - 36 vn1_vnp7_sn5 * vn3_vnp7_sn10
                                 - 54 vn1_vnp7_sn5 * vn3_vnp7_sn9
                                 - 170 vn1_vnp7_sn2 * vn2_vnp7_sn12
                                 - 52 vn1_vnp7_sn2 * vn3_vnp7_sn19
                                 - 82 vn1_vnp7_sn2 * vn3_vnp7_sn10
                                 - 78 vn1_vnp7_sn2 * vn3_vnp7_sn9
                                 - 168 vn2_vnp7_sn12 * vn3_vnp7_sn19
                                 - 76 vn2_vnp7_sn12 * vn3_vnp7_sn10
                                 - 109 vn2_vnp7_sn12 * vn3_vnp7_sn9
                                 - 115 vn4_vnp8_sn11 * vn1_vnp8_sn9
                                 - 139 vn4_vnp8_sn11 * vn1_vnp8_sn2
                                 - 73 vn4_vnp8_sn11 * vn1_vnp8_sn12
                                 - 80 vn4_vnp8_sn11 * vn2_vnp8_sn17
                                 - 184 vn4_vnp8_sn11 * vn3_vnp8_sn8
                                 - 63 vn4_vnp8_sn11 * vn3_vnp8_sn10
                                 - 143 vn1_vnp8_sn9 * vn2_vnp8_sn17
                                 - 42 vn1_vnp8_sn9 * vn3_vnp8_sn8
                                 - 85 vn1_vnp8_sn9 * vn3_vnp8_sn10
                                 - 124 vn1_vnp8_sn2 * vn2_vnp8_sn17
                                 - 118 vn1_vnp8_sn2 * vn3_vnp8_sn8
                                 - 181 vn1_vnp8_sn2 * vn3_vnp8_sn10
                                 - 212 vn1_vnp8_sn12 * vn2_vnp8_sn17
                                 - 316 vn1_vnp8_sn12 * vn3_vnp8_sn8
                                 - 114 vn1_vnp8_sn12 * vn3_vnp8_sn10
                                 - 40 vn2_vnp8_sn17 * vn3_vnp8_sn8
                                 - 58 vn2_vnp8_sn17 * vn3_vnp8_sn10 ] >= 0
Lazy Constraints
 CPU_capacity_of_substrate_node_1#0: 2 vn2_vnp5_sn1 <= 4
 CPU_capacity_of_substrate_node_2#1: 3 vn3_vnp1_sn2 + vn1_vnp2_sn2
                                 + 2 vn1_vnp3_sn2 + vn2_vnp4_sn2
                                 + 4 vn1_vnp7_sn2 + 3 vn1_vnp8_sn2 <= 8
 CPU_capacity_of_substrate_node_3#2: 2 vn4_vnp1_sn3 + 3 vn2_vnp2_sn3
                                 + 2 vn4_vnp3_sn3 <= 6
 CPU_capacity_of_substrate_node_4#3: 3 vn2_vnp1_sn4 <= 6
 CPU_capacity_of_substrate_node_5#4: 2 vn4_vnp1_sn5 + 5 vn2_vnp6_sn5
                                 + 4 vn1_vnp7_sn5 <= 8
 CPU_capacity_of_substrate_node_6#5: 4 vn1_vnp1_sn6 + 3 vn4_vnp2_sn6
                                 + 2 vn3_vnp6_sn6 + 4 vn1_vnp7_sn6 <= 8
 CPU_capacity_of_substrate_node_7#6: 2 vn1_vnp3_sn7 + vn1_vnp4_sn7
                                 + 4 vn1_vnp5_sn7 <= 8
 CPU_capacity_of_substrate_node_8#7: 3 vn3_vnp1_sn8 + 4 vn1_vnp5_sn8
                                 + 4 vn4_vnp6_sn8 + 4 vn2_vnp7_sn8
                                 + 3 vn3_vnp8_sn8 <= 6
 CPU_capacity_of_substrate_node_9#8: 3 vn3_vnp4_sn9 + 2 vn3_vnp7_sn9
                                 + 3 vn1_vnp8_sn9 <= 6
 CPU_capacity_of_substrate_node_10#9: 3 vn4_vnp2_sn10 + 2 vn1_vnp3_sn10
                                 + 2 vn3_vnp7_sn10 + 3 vn3_vnp8_sn10 <= 8
 CPU_capacity_of_substrate_node_11#10: vn1_vnp2_sn11 + 4 vn4_vnp8_sn11 <= 8
 CPU_capacity_of_substrate_node_12#11: 3 vn2_vnp2_sn12 + 4 vn3_vnp3_sn12
                                 + 4 vn2_vnp7_sn12 + 3 vn1_vnp8_sn12 <= 7
 CPU_capacity_of_substrate_node_13#12: 3 vn2_vnp3_sn13 + 4 vn1_vnp5_sn13 <= 8
 CPU_capacity_of_substrate_node_14#13: 2 vn4_vnp1_sn14 + 3 vn2_vnp3_sn14
                                 + vn3_vnp5_sn14 + vn1_vnp6_sn14 <= 8
 CPU_capacity_of_substrate_node_15#14: 3 vn4_vnp2_sn15 + 2 vn4_vnp3_sn15
                                 + 4 vn4_vnp4_sn15 + 5 vn2_vnp6_sn15 <= 8
 CPU_capacity_of_substrate_node_16#15: 3 vn2_vnp2_sn16 + vn2_vnp4_sn16
                                 + vn3_vnp5_sn16 + 2 vn3_vnp6_sn16 <= 8
 CPU_capacity_of_substrate_node_17#16: 2 vn2_vnp8_sn17 <= 8
 CPU_capacity_of_substrate_node_18#17: 4 vn3_vnp2_sn18 + vn2_vnp4_sn18 <= 8
 CPU_capacity_of_substrate_node_19#18: 4 vn4_vnp4_sn19 + 2 vn2_vnp5_sn19
                                 + 2 vn3_vnp7_sn19 <= 3
 CPU_capacity_of_substrate_node_20#19: 3 vn3_vnp4_sn20 <= 8
Bounds
 0 <= vnp1 <= 1
 0 <= vn2_vnp1_sn4 <= 1
 0 <= vn1_vnp1_sn6 <= 1
 0 <= vn3_vnp1_sn2 <= 1
 0 <= vn3_vnp1_sn8 <= 1
 0 <= vn4_vnp1_sn5 <= 1
 0 <= vn4_vnp1_sn3 <= 1
 0 <= vn4_vnp1_sn14 <= 1
 0 <= vnp2 <= 1
 0 <= vn3_vnp2_sn18 <= 1
 0 <= vn1_vnp2_sn2 <= 1
 0 <= vn1_vnp2_sn11 <= 1
 0 <= vn4_vnp2_sn6 <= 1
 0 <= vn2_vnp2_sn16 <= 1
 0 <= vn2_vnp2_sn3 <= 1
 0 <= vn2_vnp2_sn12 <= 1
 0 <= vn4_vnp2_sn10 <= 1
 0 <= vn4_vnp2_sn15 <= 1
 0 <= vnp3 <= 1
 0 <= vn3_vnp3_sn12 <= 1
 0 <= vn1_vnp3_sn2 <= 1
 0 <= vn1_vnp3_sn7 <= 1
 0 <= vn1_vnp3_sn10 <= 1
 0 <= vn2_vnp3_sn14 <= 1
 0 <= vn2_vnp3_sn13 <= 1
 0 <= vn4_vnp3_sn15 <= 1
 0 <= vn4_vnp3_sn3 <= 1
 0 <= vnp4 <= 1
 0 <= vn2_vnp4_sn18 <= 1
 0 <= vn1_vnp4_sn7 <= 1
 0 <= vn2_vnp4_sn2 <= 1
 0 <= vn2_vnp4_sn16 <= 1
 0 <= vn3_vnp4_sn9 <= 1
 0 <= vn3_vnp4_sn20 <= 1
 0 <= vn4_vnp4_sn15 <= 1
 0 <= vn4_vnp4_sn19 <= 1
 0 <= vnp5 <= 1
 0 <= vn3_vnp5_sn14 <= 1
 0 <= vn1_vnp5_sn8 <= 1
 0 <= vn1_vnp5_sn13 <= 1
 0 <= vn1_vnp5_sn7 <= 1
 0 <= vn3_vnp5_sn16 <= 1
 0 <= vn2_vnp5_sn1 <= 1
 0 <= vn2_vnp5_sn19 <= 1
 0 <= vnp6 <= 1
 0 <= vn4_vnp6_sn8 <= 1
 0 <= vn1_vnp6_sn14 <= 1
 0 <= vn2_vnp6_sn5 <= 1
 0 <= vn2_vnp6_sn15 <= 1
 0 <= vn3_vnp6_sn6 <= 1
 0 <= vn3_vnp6_sn16 <= 1
 0 <= vnp7 <= 1
 0 <= vn2_vnp7_sn8 <= 1
 0 <= vn1_vnp7_sn6 <= 1
 0 <= vn1_vnp7_sn5 <= 1
 0 <= vn1_vnp7_sn2 <= 1
 0 <= vn2_vnp7_sn12 <= 1
 0 <= vn3_vnp7_sn19 <= 1
 0 <= vn3_vnp7_sn10 <= 1
 0 <= vn3_vnp7_sn9 <= 1
 0 <= vnp8 <= 1
 0 <= vn4_vnp8_sn11 <= 1
 0 <= vn1_vnp8_sn9 <= 1
 0 <= vn1_vnp8_sn2 <= 1
 0 <= vn1_vnp8_sn12 <= 1
 0 <= vn2_vnp8_sn17 <= 1
 0 <= vn3_vnp8_sn8 <= 1
 0 <= vn3_vnp8_sn10 <= 1
Binaries
 vnp1  vn2_vnp1_sn4  vn1_vnp1_sn6  vn3_vnp1_sn2  vn3_vnp1_sn8  vn4_vnp1_sn5 
 vn4_vnp1_sn3  vn4_vnp1_sn14  vnp2  vn3_vnp2_sn18  vn1_vnp2_sn2  vn1_vnp2_sn11 
 vn4_vnp2_sn6  vn2_vnp2_sn16  vn2_vnp2_sn3  vn2_vnp2_sn12  vn4_vnp2_sn10 
 vn4_vnp2_sn15  vnp3  vn3_vnp3_sn12  vn1_vnp3_sn2  vn1_vnp3_sn7  vn1_vnp3_sn10 
 vn2_vnp3_sn14  vn2_vnp3_sn13  vn4_vnp3_sn15  vn4_vnp3_sn3  vnp4 
 vn2_vnp4_sn18  vn1_vnp4_sn7  vn2_vnp4_sn2  vn2_vnp4_sn16  vn3_vnp4_sn9 
 vn3_vnp4_sn20  vn4_vnp4_sn15  vn4_vnp4_sn19  vnp5  vn3_vnp5_sn14 
 vn1_vnp5_sn8  vn1_vnp5_sn13  vn1_vnp5_sn7  vn3_vnp5_sn16  vn2_vnp5_sn1 
 vn2_vnp5_sn19  vnp6  vn4_vnp6_sn8  vn1_vnp6_sn14  vn2_vnp6_sn5  vn2_vnp6_sn15 
 vn3_vnp6_sn6  vn3_vnp6_sn16  vnp7  vn2_vnp7_sn8  vn1_vnp7_sn6  vn1_vnp7_sn5 
 vn1_vnp7_sn2  vn2_vnp7_sn12  vn3_vnp7_sn19  vn3_vnp7_sn10  vn3_vnp7_sn9  vnp8 
 vn4_vnp8_sn11  vn1_vnp8_sn9  vn1_vnp8_sn2  vn1_vnp8_sn12  vn2_vnp8_sn17 
 vn3_vnp8_sn8  vn3_vnp8_sn10 
End
